(declare-const in6 Int)
(declare-const in5 Int)
(declare-const in7 Int)
(declare-const in0 Int)
(declare-const in2 Int)
(declare-const in1 Int)
(declare-const in4 Int)
(declare-const target Int)
(declare-const in3 Int)

(assert (and (and (and (and (and (and (and (and (and (and (and (and (and (and (and (and (and (and (and (and (and (and (and (and (and (and (and (and (and (and (and (and (and (and (and (and (and (and (and (and (and (and (and (and (and (and (and (and (and (and (and (and (and (and (and (and (and (and (and (and (and (and (and (and (and (and (and (and (and (and (and (and (and (and (and (and (and (and (and (and (and (and (and (and (and (and (and (and (and (and (and (and (and (and (and (and (and (and (and (and (and (and (and (and (and (and (and (and (and (and (and (and (and (and (and (and (and (and (and (and (and (and (and (and (and (and (and (and (and (and (and (and (and (and (and (and (and (and (and (and (and (and (and (and (and (and (and (and (and (and (and (and (and (and (and (and (and (and (and (and (and (and (and (and (and (and (and (and (and (and (and (and (and (and (and (and (and (and (and (and (and (and (and (and (and (and (and (and (and (and (and (and (and (and (and (and (and (and (and (and (and (and (and (and (and (and (and (and (and (and (and (and (and (and (and (and (and (and (and (and (and (and (and (and (and (and (and (and (and (and (and (and (and (and (and (and (and (and (and (and (and (and (and (and (and (and (and (and (and (and (and (and (and (and (and (not ( = target 0)) (not ( = ( -  target in7) 0))) (not ( = ( -  target in6) 0))) (not ( = ( -  ( -  target in6) in7) 0))) (not ( = ( -  target in5) 0))) (not ( = ( -  ( -  target in5) in7) 0))) (not ( = ( -  ( -  target in5) in6) 0))) (not ( = ( -  ( -  ( -  target in5) in6) in7) 0))) (not ( = ( -  target in4) 0))) (not ( = ( -  ( -  target in4) in7) 0))) (not ( = ( -  ( -  target in4) in6) 0))) (not ( = ( -  ( -  ( -  target in4) in6) in7) 0))) (not ( = ( -  ( -  target in4) in5) 0))) (not ( = ( -  ( -  ( -  target in4) in5) in7) 0))) (not ( = ( -  ( -  ( -  target in4) in5) in6) 0))) (not ( = ( -  ( -  ( -  ( -  target in4) in5) in6) in7) 0))) (not ( = ( -  target in3) 0))) (not ( = ( -  ( -  target in3) in7) 0))) (not ( = ( -  ( -  target in3) in6) 0))) (not ( = ( -  ( -  ( -  target in3) in6) in7) 0))) (not ( = ( -  ( -  target in3) in5) 0))) (not ( = ( -  ( -  ( -  target in3) in5) in7) 0))) (not ( = ( -  ( -  ( -  target in3) in5) in6) 0))) (not ( = ( -  ( -  ( -  ( -  target in3) in5) in6) in7) 0))) (not ( = ( -  ( -  target in3) in4) 0))) (not ( = ( -  ( -  ( -  target in3) in4) in7) 0))) (not ( = ( -  ( -  ( -  target in3) in4) in6) 0))) (not ( = ( -  ( -  ( -  ( -  target in3) in4) in6) in7) 0))) (not ( = ( -  ( -  ( -  target in3) in4) in5) 0))) (not ( = ( -  ( -  ( -  ( -  target in3) in4) in5) in7) 0))) (not ( = ( -  ( -  ( -  ( -  target in3) in4) in5) in6) 0))) (not ( = ( -  ( -  ( -  ( -  ( -  target in3) in4) in5) in6) in7) 0))) (not ( = ( -  target in2) 0))) (not ( = ( -  ( -  target in2) in7) 0))) (not ( = ( -  ( -  target in2) in6) 0))) (not ( = ( -  ( -  ( -  target in2) in6) in7) 0))) (not ( = ( -  ( -  target in2) in5) 0))) (not ( = ( -  ( -  ( -  target in2) in5) in7) 0))) (not ( = ( -  ( -  ( -  target in2) in5) in6) 0))) (not ( = ( -  ( -  ( -  ( -  target in2) in5) in6) in7) 0))) (not ( = ( -  ( -  target in2) in4) 0))) (not ( = ( -  ( -  ( -  target in2) in4) in7) 0))) (not ( = ( -  ( -  ( -  target in2) in4) in6) 0))) (not ( = ( -  ( -  ( -  ( -  target in2) in4) in6) in7) 0))) (not ( = ( -  ( -  ( -  target in2) in4) in5) 0))) (not ( = ( -  ( -  ( -  ( -  target in2) in4) in5) in7) 0))) (not ( = ( -  ( -  ( -  ( -  target in2) in4) in5) in6) 0))) (not ( = ( -  ( -  ( -  ( -  ( -  target in2) in4) in5) in6) in7) 0))) (not ( = ( -  ( -  target in2) in3) 0))) (not ( = ( -  ( -  ( -  target in2) in3) in7) 0))) (not ( = ( -  ( -  ( -  target in2) in3) in6) 0))) (not ( = ( -  ( -  ( -  ( -  target in2) in3) in6) in7) 0))) (not ( = ( -  ( -  ( -  target in2) in3) in5) 0))) (not ( = ( -  ( -  ( -  ( -  target in2) in3) in5) in7) 0))) (not ( = ( -  ( -  ( -  ( -  target in2) in3) in5) in6) 0))) (not ( = ( -  ( -  ( -  ( -  ( -  target in2) in3) in5) in6) in7) 0))) (not ( = ( -  ( -  ( -  target in2) in3) in4) 0))) (not ( = ( -  ( -  ( -  ( -  target in2) in3) in4) in7) 0))) (not ( = ( -  ( -  ( -  ( -  target in2) in3) in4) in6) 0))) (not ( = ( -  ( -  ( -  ( -  ( -  target in2) in3) in4) in6) in7) 0))) (not ( = ( -  ( -  ( -  ( -  target in2) in3) in4) in5) 0))) (not ( = ( -  ( -  ( -  ( -  ( -  target in2) in3) in4) in5) in7) 0))) (not ( = ( -  ( -  ( -  ( -  ( -  target in2) in3) in4) in5) in6) 0))) (not ( = ( -  ( -  ( -  ( -  ( -  ( -  target in2) in3) in4) in5) in6) in7) 0))) (not ( = ( -  target in1) 0))) (not ( = ( -  ( -  target in1) in7) 0))) (not ( = ( -  ( -  target in1) in6) 0))) (not ( = ( -  ( -  ( -  target in1) in6) in7) 0))) (not ( = ( -  ( -  target in1) in5) 0))) (not ( = ( -  ( -  ( -  target in1) in5) in7) 0))) (not ( = ( -  ( -  ( -  target in1) in5) in6) 0))) (not ( = ( -  ( -  ( -  ( -  target in1) in5) in6) in7) 0))) (not ( = ( -  ( -  target in1) in4) 0))) (not ( = ( -  ( -  ( -  target in1) in4) in7) 0))) (not ( = ( -  ( -  ( -  target in1) in4) in6) 0))) (not ( = ( -  ( -  ( -  ( -  target in1) in4) in6) in7) 0))) (not ( = ( -  ( -  ( -  target in1) in4) in5) 0))) (not ( = ( -  ( -  ( -  ( -  target in1) in4) in5) in7) 0))) (not ( = ( -  ( -  ( -  ( -  target in1) in4) in5) in6) 0))) (not ( = ( -  ( -  ( -  ( -  ( -  target in1) in4) in5) in6) in7) 0))) (not ( = ( -  ( -  target in1) in3) 0))) (not ( = ( -  ( -  ( -  target in1) in3) in7) 0))) (not ( = ( -  ( -  ( -  target in1) in3) in6) 0))) (not ( = ( -  ( -  ( -  ( -  target in1) in3) in6) in7) 0))) (not ( = ( -  ( -  ( -  target in1) in3) in5) 0))) (not ( = ( -  ( -  ( -  ( -  target in1) in3) in5) in7) 0))) (not ( = ( -  ( -  ( -  ( -  target in1) in3) in5) in6) 0))) (not ( = ( -  ( -  ( -  ( -  ( -  target in1) in3) in5) in6) in7) 0))) (not ( = ( -  ( -  ( -  target in1) in3) in4) 0))) (not ( = ( -  ( -  ( -  ( -  target in1) in3) in4) in7) 0))) (not ( = ( -  ( -  ( -  ( -  target in1) in3) in4) in6) 0))) (not ( = ( -  ( -  ( -  ( -  ( -  target in1) in3) in4) in6) in7) 0))) (not ( = ( -  ( -  ( -  ( -  target in1) in3) in4) in5) 0))) (not ( = ( -  ( -  ( -  ( -  ( -  target in1) in3) in4) in5) in7) 0))) (not ( = ( -  ( -  ( -  ( -  ( -  target in1) in3) in4) in5) in6) 0))) (not ( = ( -  ( -  ( -  ( -  ( -  ( -  target in1) in3) in4) in5) in6) in7) 0))) (not ( = ( -  ( -  target in1) in2) 0))) (not ( = ( -  ( -  ( -  target in1) in2) in7) 0))) (not ( = ( -  ( -  ( -  target in1) in2) in6) 0))) (not ( = ( -  ( -  ( -  ( -  target in1) in2) in6) in7) 0))) (not ( = ( -  ( -  ( -  target in1) in2) in5) 0))) (not ( = ( -  ( -  ( -  ( -  target in1) in2) in5) in7) 0))) (not ( = ( -  ( -  ( -  ( -  target in1) in2) in5) in6) 0))) (not ( = ( -  ( -  ( -  ( -  ( -  target in1) in2) in5) in6) in7) 0))) (not ( = ( -  ( -  ( -  target in1) in2) in4) 0))) (not ( = ( -  ( -  ( -  ( -  target in1) in2) in4) in7) 0))) (not ( = ( -  ( -  ( -  ( -  target in1) in2) in4) in6) 0))) (not ( = ( -  ( -  ( -  ( -  ( -  target in1) in2) in4) in6) in7) 0))) (not ( = ( -  ( -  ( -  ( -  target in1) in2) in4) in5) 0))) (not ( = ( -  ( -  ( -  ( -  ( -  target in1) in2) in4) in5) in7) 0))) (not ( = ( -  ( -  ( -  ( -  ( -  target in1) in2) in4) in5) in6) 0))) (not ( = ( -  ( -  ( -  ( -  ( -  ( -  target in1) in2) in4) in5) in6) in7) 0))) (not ( = ( -  ( -  ( -  target in1) in2) in3) 0))) (not ( = ( -  ( -  ( -  ( -  target in1) in2) in3) in7) 0))) (not ( = ( -  ( -  ( -  ( -  target in1) in2) in3) in6) 0))) (not ( = ( -  ( -  ( -  ( -  ( -  target in1) in2) in3) in6) in7) 0))) (not ( = ( -  ( -  ( -  ( -  target in1) in2) in3) in5) 0))) (not ( = ( -  ( -  ( -  ( -  ( -  target in1) in2) in3) in5) in7) 0))) (not ( = ( -  ( -  ( -  ( -  ( -  target in1) in2) in3) in5) in6) 0))) (not ( = ( -  ( -  ( -  ( -  ( -  ( -  target in1) in2) in3) in5) in6) in7) 0))) (not ( = ( -  ( -  ( -  ( -  target in1) in2) in3) in4) 0))) (not ( = ( -  ( -  ( -  ( -  ( -  target in1) in2) in3) in4) in7) 0))) (not ( = ( -  ( -  ( -  ( -  ( -  target in1) in2) in3) in4) in6) 0))) (not ( = ( -  ( -  ( -  ( -  ( -  ( -  target in1) in2) in3) in4) in6) in7) 0))) (not ( = ( -  ( -  ( -  ( -  ( -  target in1) in2) in3) in4) in5) 0))) (not ( = ( -  ( -  ( -  ( -  ( -  ( -  target in1) in2) in3) in4) in5) in7) 0))) (not ( = ( -  ( -  ( -  ( -  ( -  ( -  target in1) in2) in3) in4) in5) in6) 0))) (not ( = ( -  ( -  ( -  ( -  ( -  ( -  ( -  target in1) in2) in3) in4) in5) in6) in7) 0))) (not ( = ( -  target in0) 0))) (not ( = ( -  ( -  target in0) in7) 0))) (not ( = ( -  ( -  target in0) in6) 0))) (not ( = ( -  ( -  ( -  target in0) in6) in7) 0))) (not ( = ( -  ( -  target in0) in5) 0))) (not ( = ( -  ( -  ( -  target in0) in5) in7) 0))) (not ( = ( -  ( -  ( -  target in0) in5) in6) 0))) (not ( = ( -  ( -  ( -  ( -  target in0) in5) in6) in7) 0))) (not ( = ( -  ( -  target in0) in4) 0))) (not ( = ( -  ( -  ( -  target in0) in4) in7) 0))) (not ( = ( -  ( -  ( -  target in0) in4) in6) 0))) (not ( = ( -  ( -  ( -  ( -  target in0) in4) in6) in7) 0))) (not ( = ( -  ( -  ( -  target in0) in4) in5) 0))) (not ( = ( -  ( -  ( -  ( -  target in0) in4) in5) in7) 0))) (not ( = ( -  ( -  ( -  ( -  target in0) in4) in5) in6) 0))) (not ( = ( -  ( -  ( -  ( -  ( -  target in0) in4) in5) in6) in7) 0))) (not ( = ( -  ( -  target in0) in3) 0))) (not ( = ( -  ( -  ( -  target in0) in3) in7) 0))) (not ( = ( -  ( -  ( -  target in0) in3) in6) 0))) (not ( = ( -  ( -  ( -  ( -  target in0) in3) in6) in7) 0))) (not ( = ( -  ( -  ( -  target in0) in3) in5) 0))) (not ( = ( -  ( -  ( -  ( -  target in0) in3) in5) in7) 0))) (not ( = ( -  ( -  ( -  ( -  target in0) in3) in5) in6) 0))) (not ( = ( -  ( -  ( -  ( -  ( -  target in0) in3) in5) in6) in7) 0))) (not ( = ( -  ( -  ( -  target in0) in3) in4) 0))) (not ( = ( -  ( -  ( -  ( -  target in0) in3) in4) in7) 0))) (not ( = ( -  ( -  ( -  ( -  target in0) in3) in4) in6) 0))) (not ( = ( -  ( -  ( -  ( -  ( -  target in0) in3) in4) in6) in7) 0))) (not ( = ( -  ( -  ( -  ( -  target in0) in3) in4) in5) 0))) (not ( = ( -  ( -  ( -  ( -  ( -  target in0) in3) in4) in5) in7) 0))) (not ( = ( -  ( -  ( -  ( -  ( -  target in0) in3) in4) in5) in6) 0))) (not ( = ( -  ( -  ( -  ( -  ( -  ( -  target in0) in3) in4) in5) in6) in7) 0))) (not ( = ( -  ( -  target in0) in2) 0))) (not ( = ( -  ( -  ( -  target in0) in2) in7) 0))) (not ( = ( -  ( -  ( -  target in0) in2) in6) 0))) (not ( = ( -  ( -  ( -  ( -  target in0) in2) in6) in7) 0))) (not ( = ( -  ( -  ( -  target in0) in2) in5) 0))) (not ( = ( -  ( -  ( -  ( -  target in0) in2) in5) in7) 0))) (not ( = ( -  ( -  ( -  ( -  target in0) in2) in5) in6) 0))) (not ( = ( -  ( -  ( -  ( -  ( -  target in0) in2) in5) in6) in7) 0))) (not ( = ( -  ( -  ( -  target in0) in2) in4) 0))) (not ( = ( -  ( -  ( -  ( -  target in0) in2) in4) in7) 0))) (not ( = ( -  ( -  ( -  ( -  target in0) in2) in4) in6) 0))) (not ( = ( -  ( -  ( -  ( -  ( -  target in0) in2) in4) in6) in7) 0))) (not ( = ( -  ( -  ( -  ( -  target in0) in2) in4) in5) 0))) (not ( = ( -  ( -  ( -  ( -  ( -  target in0) in2) in4) in5) in7) 0))) (not ( = ( -  ( -  ( -  ( -  ( -  target in0) in2) in4) in5) in6) 0))) (not ( = ( -  ( -  ( -  ( -  ( -  ( -  target in0) in2) in4) in5) in6) in7) 0))) (not ( = ( -  ( -  ( -  target in0) in2) in3) 0))) (not ( = ( -  ( -  ( -  ( -  target in0) in2) in3) in7) 0))) (not ( = ( -  ( -  ( -  ( -  target in0) in2) in3) in6) 0))) (not ( = ( -  ( -  ( -  ( -  ( -  target in0) in2) in3) in6) in7) 0))) (not ( = ( -  ( -  ( -  ( -  target in0) in2) in3) in5) 0))) (not ( = ( -  ( -  ( -  ( -  ( -  target in0) in2) in3) in5) in7) 0))) (not ( = ( -  ( -  ( -  ( -  ( -  target in0) in2) in3) in5) in6) 0))) (not ( = ( -  ( -  ( -  ( -  ( -  ( -  target in0) in2) in3) in5) in6) in7) 0))) (not ( = ( -  ( -  ( -  ( -  target in0) in2) in3) in4) 0))) (not ( = ( -  ( -  ( -  ( -  ( -  target in0) in2) in3) in4) in7) 0))) (not ( = ( -  ( -  ( -  ( -  ( -  target in0) in2) in3) in4) in6) 0))) (not ( = ( -  ( -  ( -  ( -  ( -  ( -  target in0) in2) in3) in4) in6) in7) 0))) (not ( = ( -  ( -  ( -  ( -  ( -  target in0) in2) in3) in4) in5) 0))) (not ( = ( -  ( -  ( -  ( -  ( -  ( -  target in0) in2) in3) in4) in5) in7) 0))) (not ( = ( -  ( -  ( -  ( -  ( -  ( -  target in0) in2) in3) in4) in5) in6) 0))) (not ( = ( -  ( -  ( -  ( -  ( -  ( -  ( -  target in0) in2) in3) in4) in5) in6) in7) 0))) (not ( = ( -  ( -  target in0) in1) 0))) (not ( = ( -  ( -  ( -  target in0) in1) in7) 0))) (not ( = ( -  ( -  ( -  target in0) in1) in6) 0))) (not ( = ( -  ( -  ( -  ( -  target in0) in1) in6) in7) 0))) (not ( = ( -  ( -  ( -  target in0) in1) in5) 0))) (not ( = ( -  ( -  ( -  ( -  target in0) in1) in5) in7) 0))) (not ( = ( -  ( -  ( -  ( -  target in0) in1) in5) in6) 0))) (not ( = ( -  ( -  ( -  ( -  ( -  target in0) in1) in5) in6) in7) 0))) (not ( = ( -  ( -  ( -  target in0) in1) in4) 0))) (not ( = ( -  ( -  ( -  ( -  target in0) in1) in4) in7) 0))) (not ( = ( -  ( -  ( -  ( -  target in0) in1) in4) in6) 0))) (not ( = ( -  ( -  ( -  ( -  ( -  target in0) in1) in4) in6) in7) 0))) (not ( = ( -  ( -  ( -  ( -  target in0) in1) in4) in5) 0))) (not ( = ( -  ( -  ( -  ( -  ( -  target in0) in1) in4) in5) in7) 0))) (not ( = ( -  ( -  ( -  ( -  ( -  target in0) in1) in4) in5) in6) 0))) (not ( = ( -  ( -  ( -  ( -  ( -  ( -  target in0) in1) in4) in5) in6) in7) 0))) (not ( = ( -  ( -  ( -  target in0) in1) in3) 0))) (not ( = ( -  ( -  ( -  ( -  target in0) in1) in3) in7) 0))) (not ( = ( -  ( -  ( -  ( -  target in0) in1) in3) in6) 0))) (not ( = ( -  ( -  ( -  ( -  ( -  target in0) in1) in3) in6) in7) 0))) (not ( = ( -  ( -  ( -  ( -  target in0) in1) in3) in5) 0))) (not ( = ( -  ( -  ( -  ( -  ( -  target in0) in1) in3) in5) in7) 0))) (not ( = ( -  ( -  ( -  ( -  ( -  target in0) in1) in3) in5) in6) 0))) (not ( = ( -  ( -  ( -  ( -  ( -  ( -  target in0) in1) in3) in5) in6) in7) 0))) (not ( = ( -  ( -  ( -  ( -  target in0) in1) in3) in4) 0))) (not ( = ( -  ( -  ( -  ( -  ( -  target in0) in1) in3) in4) in7) 0))) (not ( = ( -  ( -  ( -  ( -  ( -  target in0) in1) in3) in4) in6) 0))) (not ( = ( -  ( -  ( -  ( -  ( -  ( -  target in0) in1) in3) in4) in6) in7) 0))) (not ( = ( -  ( -  ( -  ( -  ( -  target in0) in1) in3) in4) in5) 0))) (not ( = ( -  ( -  ( -  ( -  ( -  ( -  target in0) in1) in3) in4) in5) in7) 0))) (not ( = ( -  ( -  ( -  ( -  ( -  ( -  target in0) in1) in3) in4) in5) in6) 0))) (not ( = ( -  ( -  ( -  ( -  ( -  ( -  ( -  target in0) in1) in3) in4) in5) in6) in7) 0))) (not ( = ( -  ( -  ( -  target in0) in1) in2) 0))) (not ( = ( -  ( -  ( -  ( -  target in0) in1) in2) in7) 0))) (not ( = ( -  ( -  ( -  ( -  target in0) in1) in2) in6) 0))) (not ( = ( -  ( -  ( -  ( -  ( -  target in0) in1) in2) in6) in7) 0))) (not ( = ( -  ( -  ( -  ( -  target in0) in1) in2) in5) 0))) (not ( = ( -  ( -  ( -  ( -  ( -  target in0) in1) in2) in5) in7) 0))) (not ( = ( -  ( -  ( -  ( -  ( -  target in0) in1) in2) in5) in6) 0))) (not ( = ( -  ( -  ( -  ( -  ( -  ( -  target in0) in1) in2) in5) in6) in7) 0))) (not ( = ( -  ( -  ( -  ( -  target in0) in1) in2) in4) 0))) (not ( = ( -  ( -  ( -  ( -  ( -  target in0) in1) in2) in4) in7) 0))) (not ( = ( -  ( -  ( -  ( -  ( -  target in0) in1) in2) in4) in6) 0))) (not ( = ( -  ( -  ( -  ( -  ( -  ( -  target in0) in1) in2) in4) in6) in7) 0))) (not ( = ( -  ( -  ( -  ( -  ( -  target in0) in1) in2) in4) in5) 0))) (not ( = ( -  ( -  ( -  ( -  ( -  ( -  target in0) in1) in2) in4) in5) in7) 0))) (not ( = ( -  ( -  ( -  ( -  ( -  ( -  target in0) in1) in2) in4) in5) in6) 0))) (not ( = ( -  ( -  ( -  ( -  ( -  ( -  ( -  target in0) in1) in2) in4) in5) in6) in7) 0))) (not ( = ( -  ( -  ( -  ( -  target in0) in1) in2) in3) 0))) (not ( = ( -  ( -  ( -  ( -  ( -  target in0) in1) in2) in3) in7) 0))) (not ( = ( -  ( -  ( -  ( -  ( -  target in0) in1) in2) in3) in6) 0))) (not ( = ( -  ( -  ( -  ( -  ( -  ( -  target in0) in1) in2) in3) in6) in7) 0))) (not ( = ( -  ( -  ( -  ( -  ( -  target in0) in1) in2) in3) in5) 0))) (not ( = ( -  ( -  ( -  ( -  ( -  ( -  target in0) in1) in2) in3) in5) in7) 0))) (not ( = ( -  ( -  ( -  ( -  ( -  ( -  target in0) in1) in2) in3) in5) in6) 0))) (not ( = ( -  ( -  ( -  ( -  ( -  ( -  ( -  target in0) in1) in2) in3) in5) in6) in7) 0))) (not ( = ( -  ( -  ( -  ( -  ( -  target in0) in1) in2) in3) in4) 0))) (not ( = ( -  ( -  ( -  ( -  ( -  ( -  target in0) in1) in2) in3) in4) in7) 0))) (not ( = ( -  ( -  ( -  ( -  ( -  ( -  target in0) in1) in2) in3) in4) in6) 0))) (not ( = ( -  ( -  ( -  ( -  ( -  ( -  ( -  target in0) in1) in2) in3) in4) in6) in7) 0))) (not ( = ( -  ( -  ( -  ( -  ( -  ( -  target in0) in1) in2) in3) in4) in5) 0))) (not ( = ( -  ( -  ( -  ( -  ( -  ( -  ( -  target in0) in1) in2) in3) in4) in5) in7) 0))) (not ( = ( -  ( -  ( -  ( -  ( -  ( -  ( -  target in0) in1) in2) in3) in4) in5) in6) 0))) (not ( = ( -  ( -  ( -  ( -  ( -  ( -  ( -  ( -  target in0) in1) in2) in3) in4) in5) in6) in7) 0))))

(check-sat)
(get-model)